c CNF file corresponding to a (partial) station packing problem.
p cnf 5380 229
1 2 3 4 5 6 7 8 9 10 11 12 13 14 0
-1 -2 0
-1 -3 0
-1 -4 0
-1 -5 0
-1 -6 0
-1 -7 0
-1 -8 0
-1 -9 0
-1 -10 0
-1 -11 0
-1 -12 0
-1 -13 0
-1 -14 0
-2 -3 0
-2 -4 0
-2 -5 0
-2 -6 0
-2 -7 0
-2 -8 0
-2 -9 0
-2 -10 0
-2 -11 0
-2 -12 0
-2 -13 0
-2 -14 0
-3 -4 0
-3 -5 0
-3 -6 0
-3 -7 0
-3 -8 0
-3 -9 0
-3 -10 0
-3 -11 0
-3 -12 0
-3 -13 0
-3 -14 0
-4 -5 0
-4 -6 0
-4 -7 0
-4 -8 0
-4 -9 0
-4 -10 0
-4 -11 0
-4 -12 0
-4 -13 0
-4 -14 0
-5 -6 0
-5 -7 0
-5 -8 0
-5 -9 0
-5 -10 0
-5 -11 0
-5 -12 0
-5 -13 0
-5 -14 0
-6 -7 0
-6 -8 0
-6 -9 0
-6 -10 0
-6 -11 0
-6 -12 0
-6 -13 0
-6 -14 0
-7 -8 0
-7 -9 0
-7 -10 0
-7 -11 0
-7 -12 0
-7 -13 0
-7 -14 0
-8 -9 0
-8 -10 0
-8 -11 0
-8 -12 0
-8 -13 0
-8 -14 0
-9 -10 0
-9 -11 0
-9 -12 0
-9 -13 0
-9 -14 0
-10 -11 0
-10 -12 0
-10 -13 0
-10 -14 0
-11 -12 0
-11 -13 0
-11 -14 0
-12 -13 0
-12 -14 0
-13 -14 0
5364 5365 5366 5367 5368 5369 5370 5371 5372 5373 5374 5375 5376 5377 5378 5379 5380 0
-5364 -5365 0
-5364 -5366 0
-5364 -5367 0
-5364 -5368 0
-5364 -5369 0
-5364 -5370 0
-5364 -5371 0
-5364 -5372 0
-5364 -5373 0
-5364 -5374 0
-5364 -5375 0
-5364 -5376 0
-5364 -5377 0
-5364 -5378 0
-5364 -5379 0
-5364 -5380 0
-5365 -5366 0
-5365 -5367 0
-5365 -5368 0
-5365 -5369 0
-5365 -5370 0
-5365 -5371 0
-5365 -5372 0
-5365 -5373 0
-5365 -5374 0
-5365 -5375 0
-5365 -5376 0
-5365 -5377 0
-5365 -5378 0
-5365 -5379 0
-5365 -5380 0
-5366 -5367 0
-5366 -5368 0
-5366 -5369 0
-5366 -5370 0
-5366 -5371 0
-5366 -5372 0
-5366 -5373 0
-5366 -5374 0
-5366 -5375 0
-5366 -5376 0
-5366 -5377 0
-5366 -5378 0
-5366 -5379 0
-5366 -5380 0
-5367 -5368 0
-5367 -5369 0
-5367 -5370 0
-5367 -5371 0
-5367 -5372 0
-5367 -5373 0
-5367 -5374 0
-5367 -5375 0
-5367 -5376 0
-5367 -5377 0
-5367 -5378 0
-5367 -5379 0
-5367 -5380 0
-5368 -5369 0
-5368 -5370 0
-5368 -5371 0
-5368 -5372 0
-5368 -5373 0
-5368 -5374 0
-5368 -5375 0
-5368 -5376 0
-5368 -5377 0
-5368 -5378 0
-5368 -5379 0
-5368 -5380 0
-5369 -5370 0
-5369 -5371 0
-5369 -5372 0
-5369 -5373 0
-5369 -5374 0
-5369 -5375 0
-5369 -5376 0
-5369 -5377 0
-5369 -5378 0
-5369 -5379 0
-5369 -5380 0
-5370 -5371 0
-5370 -5372 0
-5370 -5373 0
-5370 -5374 0
-5370 -5375 0
-5370 -5376 0
-5370 -5377 0
-5370 -5378 0
-5370 -5379 0
-5370 -5380 0
-5371 -5372 0
-5371 -5373 0
-5371 -5374 0
-5371 -5375 0
-5371 -5376 0
-5371 -5377 0
-5371 -5378 0
-5371 -5379 0
-5371 -5380 0
-5372 -5373 0
-5372 -5374 0
-5372 -5375 0
-5372 -5376 0
-5372 -5377 0
-5372 -5378 0
-5372 -5379 0
-5372 -5380 0
-5373 -5374 0
-5373 -5375 0
-5373 -5376 0
-5373 -5377 0
-5373 -5378 0
-5373 -5379 0
-5373 -5380 0
-5374 -5375 0
-5374 -5376 0
-5374 -5377 0
-5374 -5378 0
-5374 -5379 0
-5374 -5380 0
-5375 -5376 0
-5375 -5377 0
-5375 -5378 0
-5375 -5379 0
-5375 -5380 0
-5376 -5377 0
-5376 -5378 0
-5376 -5379 0
-5376 -5380 0
-5377 -5378 0
-5377 -5379 0
-5377 -5380 0
-5378 -5379 0
-5378 -5380 0
-5379 -5380 0
